(set-info :smt-lib-version 2.6)
(set-logic QF_UFLRA)
(set-info :source |
MathSat group

|)
(set-info :category "random")
(set-info :status unsat)
(declare-fun x0 () Real)
(declare-fun x1 () Real)
(declare-fun x2 () Real)
(declare-fun x3 () Real)
(declare-fun x4 () Real)
(declare-fun x5 () Real)
(declare-fun x6 () Real)
(declare-fun x7 () Real)
(declare-fun x8 () Real)
(declare-fun x9 () Real)
(declare-fun x10 () Real)
(declare-fun x11 () Real)
(declare-fun x12 () Real)
(declare-fun x13 () Real)
(declare-fun x14 () Real)
(declare-fun x15 () Real)
(declare-fun x16 () Real)
(declare-fun x17 () Real)
(declare-fun x18 () Real)
(declare-fun x19 () Real)
(declare-fun x20 () Real)
(declare-fun x21 () Real)
(declare-fun x22 () Real)
(declare-fun x23 () Real)
(declare-fun x24 () Real)
(declare-fun x25 () Real)
(declare-fun x26 () Real)
(declare-fun x27 () Real)
(declare-fun x28 () Real)
(declare-fun x29 () Real)
(declare-fun f0_1 (Real) Real)
(declare-fun f0_2 (Real Real) Real)
(declare-fun f0_3 (Real Real Real) Real)
(declare-fun f0_4 (Real Real Real Real) Real)
(declare-fun P0 () Bool)
(declare-fun P1 () Bool)
(declare-fun P2 () Bool)
(declare-fun P3 () Bool)
(declare-fun P4 () Bool)
(declare-fun P5 () Bool)
(declare-fun P6 () Bool)
(declare-fun P7 () Bool)
(declare-fun P8 () Bool)
(declare-fun P9 () Bool)
(declare-fun P10 () Bool)
(declare-fun P11 () Bool)
(declare-fun P12 () Bool)
(declare-fun P13 () Bool)
(declare-fun P14 () Bool)
(declare-fun P15 () Bool)
(declare-fun P16 () Bool)
(declare-fun P17 () Bool)
(declare-fun P18 () Bool)
(declare-fun P19 () Bool)
(declare-fun P20 () Bool)
(declare-fun P21 () Bool)
(declare-fun P22 () Bool)
(declare-fun P23 () Bool)
(declare-fun P24 () Bool)
(declare-fun P25 () Bool)
(declare-fun P26 () Bool)
(declare-fun P27 () Bool)
(declare-fun P28 () Bool)
(declare-fun P29 () Bool)
(assert (let ((?v_37 (<= (+ (- (* 27 x20) (* 41 x10)) (* 24 x2)) 31)) (?v_86 (* 17 x29))) (let ((?v_92 (= (- (- ?v_86 (* 40 x25)) (* 38 x21)) 18)) (?v_21 (<= (- (- (* 25 x10) (* 16 x7)) (* 14 x13)) 42)) (?v_93 (< (- (+ (* 29 x11) (* 25 x13)) (* 34 x21)) 3)) (?v_14 (= (- (- (* 40 x11) (* 11 x11)) (* 3 x15)) 42)) (?v_139 (<= (- (+ (* 10 x5) (* 21 x25)) (* 22 x29)) 13)) (?v_2 (* 26 x22))) (let ((?v_12 (< (+ (- ?v_2 (* 5 x29)) (* 26 x20)) 16)) (?v_89 (<= (- (- (* 35 x16) (* 23 x23)) (* 25 x26)) 43)) (?v_32 (< (- (- (* 12 x8) (* 24 x15)) (* 7 x23)) 35)) (?v_102 (<= (+ (- (* 3 x18) (* 6 x17)) (* 12 x15)) 3)) (?v_16 (= (f0_2 x17 x22) (f0_2 x11 x10))) (?v_31 (distinct x11 x25)) (?v_130 (= x27 (f0_1 x12))) (?v_83 (distinct (f0_1 x6) x7)) (?v_29 (distinct x26 x6)) (?v_77 (distinct x28 x12)) (?v_65 (= x12 (f0_2 x21 x11))) (?v_54 (distinct (f0_2 x12 x26) (f0_1 x2))) (?v_64 (= x15 x29)) (?v_9 (= (f0_2 x27 x19) x21)) (?v_20 (distinct x9 (f0_2 x16 x15))) (?v_18 (= (f0_2 x23 x23) x29)) (?v_10 (= (f0_2 x11 x2) (f0_1 x20))) (?v_15 (= (f0_2 x0 x0) x21)) (?v_104 (distinct (f0_1 x26) x13)) (?v_49 (f0_1 x0))) (let ((?v_84 (= ?v_49 (f0_1 x13))) (?v_41 (distinct x8 (f0_1 x28))) (?v_42 (f0_1 x5))) (let ((?v_8 (= (f0_2 x29 x15) ?v_42)) (?v_28 (= x20 (f0_1 x8))) (?v_140 (distinct x7 (f0_2 x21 x25))) (?v_43 (distinct x5 (f0_2 x28 x3))) (?v_147 (= x1 x10)) (?v_13 (= ?v_49 (f0_1 x11))) (?v_81 (distinct (f0_2 x22 x2) x2)) (?v_105 (distinct ?v_42 (f0_1 x23))) (?v_23 (distinct x2 (f0_2 x2 x9))) (?v_124 (f0_1 x27))) (let ((?v_150 (= ?v_124 ?v_124)) (?v_1 (= x28 (f0_2 x9 x22))) (?v_44 (distinct x24 x22)) (?v_115 (distinct (f0_1 x15) (f0_2 x15 x29))) (?v_47 (not ?v_140)) (?v_74 (not ?v_21)) (?v_7 (not ?v_8)) (?v_0 (not P21)) (?v_3 (not ?v_15)) (?v_75 (not P9)) (?v_5 (not P24)) (?v_79 (not ?v_139))) (let ((?v_85 (not ?v_1)) (?v_88 (not P26)) (?v_133 (not P0)) (?v_52 (not ?v_20)) (?v_33 (not P1)) (?v_36 (not P2)) (?v_56 (not P23)) (?v_55 (not ?v_14)) (?v_108 (not ?v_102)) (?v_78 (not ?v_54)) (?v_51 (not ?v_13)) (?v_27 (not ?v_81)) (?v_80 (not ?v_44)) (?v_68 (not ?v_9)) (?v_26 (not ?v_32)) (?v_121 (not ?v_93)) (?v_144 (not ?v_28)) (?v_30 (not ?v_43)) (?v_39 (not ?v_104)) (?v_35 (not P22)) (?v_71 (not ?v_115)) (?v_154 (not ?v_23)) (?v_58 (not P28)) (?v_53 (not P14)) (?v_91 (not P5)) (?v_61 (not P16)) (?v_34 (not P6)) (?v_70 (not P8)) (?v_114 (not ?v_31)) (?v_129 (not ?v_16)) (?v_48 (not ?v_18)) (?v_134 (not ?v_130)) (?v_109 (not P11)) (?v_120 (not ?v_105)) (?v_72 (not P15)) (?v_57 (not P4)) (?v_69 (not ?v_64)) (?v_95 (not ?v_147)) (?v_87 (not ?v_29)) (?v_116 (not P29)) (?v_59 (not P19))) (let ((?v_131 (or ?v_7 ?v_59)) (?v_76 (not ?v_65)) (?v_111 (not P10)) (?v_90 (not P25)) (?v_107 (not ?v_12)) (?v_82 (not ?v_37)) (?v_148 (not P7)) (?v_96 (not P3)) (?v_137 (not ?v_89)) (?v_97 (not ?v_10)) (?v_112 (not ?v_92)) (?v_142 (not P27)) (?v_138 (not ?v_77)) (?v_151 (not ?v_41)) (?v_123 (not ?v_83)) (?v_136 (not P18)) (?v_141 (not P20)) (?v_146 (not P17)) (?v_143 (not P13)) (?v_153 (not ?v_84)) (?v_152 (not ?v_150)) (?v_156 (or ?v_7 ?v_20)) (?v_103 (< (- (* 35 x26) (* 32 x25)) 37))) (let ((?v_149 (not ?v_103)) (?v_62 (<= (+ (* 19 x9) (* 6 x27) (* 42 x26)) 37))) (let ((?v_110 (not ?v_62)) (?v_11 (< (- (- (* (- 18) x6) (* 37 x22)) (* 9 x7)) (- 9))) (?v_38 (distinct (+ (- (* 10 x20) (* 12 x10)) (* 3 x9)) (- 29))) (?v_22 (< (+ (- (* 26 x6) (* 40 x18)) (* 29 x6)) (- 8)))) (let ((?v_100 (not ?v_22)) (?v_6 (< (+ ?v_2 (* 36 x14) (* 16 x8)) (- 5)))) (let ((?v_19 (not ?v_6)) (?v_99 (= (+ (- (* 26 x11) (* 13 x25)) x25) (- 6))) (?v_25 (<= (- (- (* (- 16) x18) (* 28 x7)) (* 4 x7)) (- 29)))) (let ((?v_66 (not ?v_25)) (?v_4 (distinct (+ (- (* (- 24) x20) (* 38 x14)) (* 42 x23)) 44)) (?v_46 (< (+ (- (* (- 29) x26) 0) (* 17 x11)) 17)) (?v_17 (distinct (- (+ (* (- 12) x10) (* 36 x22)) (* 34 x26)) (- 9))) (?v_45 (not ?v_11)) (?v_117 (< (- (- (* 11 x22) (* 11 x27)) (* 28 x15)) (- 42))) (?v_24 (<= (- (- (* (- 32) x5) (* 9 x3)) (* 31 x9)) 28))) (let ((?v_40 (not ?v_24)) (?v_50 (not ?v_4)) (?v_106 (< (+ (- (* (- 37) x12) (* 21 x6)) (* 40 x23)) (- 36)))) (let ((?v_67 (not ?v_106)) (?v_60 (distinct (+ (* (- 1) x13) (* 21 x27) (* 16 x10)) (- 5))) (?v_113 (< (- (+ (* 24 x11) (* 41 x15)) (* 37 x28)) (- 39))) (?v_118 (< (+ (* (- 33) x23) (* 22 x20) (* 20 x4)) (- 14))) (?v_63 (< (- (+ (* (- 34) x29) (* 30 x21)) ?v_86) (- 12)))) (let ((?v_132 (not ?v_63)) (?v_101 (not ?v_46)) (?v_94 (= (+ (* (- 30) x19) (* 13 x20) (* 22 x3)) 26))) (let ((?v_98 (not ?v_94))) (let ((?v_155 (or ?v_98 ?v_20)) (?v_73 (not ?v_17)) (?v_119 (< (+ (* (- 17) x4) (* 5 x1) (* 12 x29)) (- 23)))) (let ((?v_145 (not ?v_119)) (?v_128 (not ?v_38)) (?v_125 (not ?v_113)) (?v_122 (not ?v_60)) (?v_127 (not ?v_117)) (?v_126 (not ?v_118)) (?v_135 (not ?v_99))) (and (and (and (and (and (and (and (and (and (and (and (and (and (and (and (and (and (and (and (and (and (and (and (and (and (and (and (and (and (and (and (and (and (and (and (and (and (and (and (and (and (and (and (and (and (and (and (and (and (and (and (and (and (and (and (and (and (and (and (and (and (and (and (and (and (and (and (and (and (and (and (and (and (and (and (and (and (and (and (and (and (and (and (and (and (and (and (and (and (and (and (and (and (and (and (and (and (and (and (and (and (and (and (and (and (and (and (and (and (and (and (and (and (and (and (and (and (and (and (and (and (and (and (and (and (and (and (and (and (and (and (and (and (and (and (and (and (and (and (and (and (and (and (and (and (and (and (and (and (and (and (and (and (and (and (and (and (and (and (and (and (and (and (and (and (and (and (and (and (and (and (and (and (and (and (and (and (and (and (and (and (and (and (and (and (and (and (and (and (and (and (and (and (and (and (and (and (and (and (and (and (and (and (and (and (and (and (and (and (and (and (and (and (and (and (and (and (and (and (and (and (and (and (and (and (and (and (and (and (and (and (and (and (and (and (and (and (and (and (and (and (and (and (and (and (and (and (and (and (and (and (and (and (and (and (and (and (and (and (and (and (and (and (and (and (and (and (and (and (and (and (and (and (and (and (and (and (and (and (and (and (and (and (and (and (and (and (and (and (and (and (and (and (and (and (and (and (and (and (and (and (and (and (and (and (and (and (and (and (and (and (and (and (and (and (and (and (and (and (and (and (and (and (and (and (and (and (and (and (and (and (and (and (and (and (and (and (and (and (and (and (and (and (and (and (and (and (and (and (and (and (and (and (and (and (and (and (and (and (and (and (and (and (and (and (and (and (and (and (and (and (and (and (and (and (and (and (and (and (and (and (and (and (and (and (and (and (and (and (and (and (and (and (and (and (and (and (and (and (and (and (and (and (and (and (and (and (and (and (and (and (and (and (and (and (and (and (and (and (and (and (and (and (and (and (and (and (and (and (and (and (and (and (and (and (and (and (and (and (and (and (and (and (and (and (and (and (and (and (or (or ?v_47 ?v_149) ?v_74) (or (or ?v_7 ?v_0) P0)) (or (or ?v_3 P28) ?v_11)) (or (or ?v_0 ?v_75) ?v_5)) (or (or P13 ?v_79) ?v_85)) (or (or ?v_37 P9) ?v_16)) (or (or ?v_88 ?v_12) P22)) (or (or P14 ?v_38) ?v_133)) (or (or ?v_1 ?v_100) ?v_19)) (or (or ?v_52 ?v_99) ?v_31)) (or (or ?v_3 ?v_66) ?v_4)) (or (or ?v_23 ?v_46) ?v_4)) (or (or ?v_33 ?v_5) ?v_10)) (or (or ?v_6 ?v_36) ?v_56)) (or (or ?v_55 ?v_108) ?v_7)) (or (or P26 ?v_17) P17)) (or (or ?v_78 ?v_8) ?v_51)) (or (or ?v_27 ?v_8) ?v_80)) (or (or ?v_9 ?v_68) ?v_26)) (or (or ?v_121 ?v_10) P15)) (or (or ?v_18 ?v_11) ?v_144)) (or (or ?v_12 ?v_45) ?v_30)) (or (or P16 ?v_117) ?v_13)) (or (or P24 ?v_14) ?v_15)) (or (or P22 ?v_16) ?v_17)) (or (or ?v_18 ?v_39) ?v_35)) (or (or ?v_19 ?v_20) ?v_3)) (or (or ?v_24 ?v_77) ?v_71)) (or (or ?v_21 ?v_22) ?v_154)) (or (or ?v_58 P4) ?v_23)) (or (or ?v_40 ?v_25) ?v_50)) (or (or ?v_26 ?v_53) ?v_19)) (or (or ?v_67 ?v_27) ?v_28)) (or (or ?v_60 ?v_29) P17)) (or (or P20 ?v_41) ?v_28)) (or (or ?v_91 ?v_29) ?v_110)) (or (or ?v_19 ?v_61) ?v_30)) (or (or ?v_34 ?v_15) ?v_1)) (or (or ?v_27 ?v_22) P21)) (or (or ?v_70 ?v_21) P25)) (or (or ?v_113 ?v_31) P18)) (or (or ?v_27 ?v_114) ?v_118)) (or (or ?v_32 ?v_33) ?v_129)) (or (or ?v_1 ?v_34) ?v_30)) (or (or ?v_7 ?v_35) ?v_36)) (or (or ?v_37 P3) ?v_38)) (or (or ?v_16 ?v_48) ?v_20)) (or (or P12 ?v_134) P15)) (or (or ?v_39 P20) ?v_34)) (or (or ?v_40 ?v_41) ?v_109)) (or (or ?v_120 ?v_10) ?v_132)) (or (or P8 ?v_43) ?v_44)) (or (or ?v_72 ?v_45) ?v_7)) (or (or P22 ?v_43) ?v_101)) (or (or ?v_36 ?v_47) ?v_48)) (or (or ?v_84 ?v_50) ?v_51)) (or (or ?v_57 ?v_14) ?v_52)) (or ?v_155 ?v_31)) (or (or ?v_53 P20) ?v_5)) (or (or ?v_27 ?v_6) ?v_36)) (or (or P0 ?v_54) ?v_5)) (or (or ?v_69 ?v_95) P2)) (or (or ?v_15 P19) ?v_35)) (or (or P23 ?v_87) ?v_116)) (or ?v_131 ?v_34)) (or (or ?v_55 P28) ?v_56)) (or (or ?v_57 ?v_58) ?v_59)) (or (or P5 ?v_73) P17)) (or (or P11 ?v_40) ?v_0)) (or (or ?v_60 ?v_61) P12)) (or (or ?v_62 ?v_63) ?v_76)) (or (or ?v_64 ?v_13) P10)) (or (or ?v_30 ?v_65) ?v_66)) (or (or ?v_67 ?v_83) ?v_45)) (or (or ?v_68 ?v_111) ?v_1)) (or (or ?v_69 P19) ?v_60)) (or (or ?v_145 ?v_90) ?v_65)) (or (or ?v_57 ?v_12) ?v_34)) (or (or ?v_70 ?v_16) ?v_7)) (or (or ?v_18 ?v_33) ?v_43)) (or (or ?v_63 ?v_44) ?v_71)) (or (or ?v_72 ?v_50) ?v_13)) (or (or ?v_73 ?v_50) ?v_1)) (or (or P14 P5) ?v_47)) (or (or ?v_44 ?v_48) ?v_9)) (or (or ?v_66 ?v_74) P5)) (or (or P10 ?v_74) ?v_52)) (or (or ?v_68 ?v_71) ?v_75)) (or (or ?v_76 ?v_107) ?v_63)) (or (or ?v_82 ?v_9) ?v_77)) (or (or ?v_78 P22) ?v_79)) (or (or ?v_80 ?v_18) ?v_43)) (or (or ?v_16 ?v_32) ?v_81)) (or (or ?v_82 ?v_12) P22)) (or (or ?v_27 ?v_83) ?v_80)) (or (or ?v_32 ?v_148) ?v_45)) (or (or ?v_84 ?v_89) ?v_85)) (or (or ?v_92 ?v_87) ?v_1)) (or (or P28 P1) P10)) (or (or P2 ?v_47) ?v_76)) (or (or ?v_84 P19) ?v_45)) (or (or ?v_96 ?v_15) ?v_88)) (or (or P17 ?v_54) P9)) (or (or P11 ?v_137) ?v_90)) (or (or ?v_91 (not P12)) ?v_97)) (or (or ?v_112 P28) ?v_93)) (or (or P14 ?v_94) ?v_95)) (or (or ?v_83 ?v_96) P6)) (or (or ?v_97 ?v_98) ?v_81)) (or (or ?v_128 P1) ?v_99)) (or (or ?v_100 ?v_78) P13)) (or (or ?v_30 ?v_23) ?v_101)) (or (or ?v_142 ?v_102) ?v_4)) (or (or ?v_103 ?v_88) ?v_71)) (or (or ?v_51 ?v_138) ?v_47)) (or (or ?v_61 ?v_151) P1)) (or (or ?v_28 ?v_54) P2)) (or (or ?v_104 P7) ?v_105)) (or (or ?v_106 ?v_123) ?v_107)) (or (or ?v_106 ?v_15) ?v_72)) (or (or ?v_22 ?v_108) ?v_94)) (or (or ?v_109 ?v_67) ?v_29)) (or (or ?v_16 ?v_110) ?v_43)) (or (or ?v_111 ?v_12) ?v_36)) (or (or ?v_29 ?v_46) ?v_112)) (or (or ?v_67 ?v_58) ?v_125)) (or (or P16 ?v_109) ?v_84)) (or (or ?v_29 ?v_14) ?v_114)) (or (or ?v_20 ?v_122) P10)) (or (or P29 ?v_41) ?v_63)) (or (or ?v_84 ?v_115) ?v_116)) (or (or ?v_127 ?v_126) ?v_13)) (or (or ?v_63 ?v_75) ?v_110)) (or (or ?v_119 P20) P4)) (or (or ?v_135 ?v_25) ?v_94)) (or (or ?v_120 P13) ?v_64)) (or (or ?v_41 ?v_105) ?v_100)) (or (or P19 ?v_82) ?v_31)) (or (or ?v_136 ?v_70) ?v_28)) (or (or ?v_37 ?v_121) ?v_3)) (or (or ?v_115 ?v_110) ?v_9)) (or (or ?v_25 P6) ?v_10)) (or (or ?v_122 ?v_45) ?v_63)) (or (or ?v_70 ?v_70) ?v_58)) (or (or P10 ?v_82) ?v_123)) (or (or ?v_150 ?v_33) ?v_7)) (or (or P27 ?v_125) ?v_88)) (or (or ?v_56 P8) ?v_31)) (or (or ?v_126 ?v_100) ?v_51)) (or (or ?v_13 P12) ?v_12)) (or (or ?v_73 ?v_92) ?v_108)) (or (or ?v_122 ?v_141) ?v_53)) (or (or ?v_127 ?v_92) P22)) (or (or P10 ?v_18) ?v_128)) (or (or ?v_93 ?v_80) ?v_90)) (or (or P6 ?v_110) ?v_45)) (or (or P19 ?v_56) ?v_120)) (or (or ?v_78 ?v_129) ?v_89)) (or (or ?v_3 ?v_6) ?v_130)) (or (or ?v_93 ?v_127) P0)) (or (or P19 ?v_109) ?v_40)) (or (or P29 ?v_96) ?v_91)) (or (or P5 ?v_26) ?v_19)) (or ?v_131 ?v_56)) (or (or P13 P17) ?v_62)) (or (or ?v_98 ?v_26) ?v_21)) (or (or ?v_132 ?v_103) ?v_19)) (or (or ?v_6 ?v_146) ?v_107)) (or (or ?v_72 ?v_108) P21)) (or (or ?v_74 P2) ?v_29)) (or (or P3 P20) P19)) (or (or ?v_90 P11) ?v_127)) (or (or ?v_109 ?v_5) ?v_85)) (or (or P28 ?v_46) ?v_119)) (or (or ?v_69 ?v_70) P20)) (or (or ?v_95 ?v_5) ?v_92)) (or (or ?v_133 P6) ?v_111)) (or (or ?v_110 P25) ?v_59)) (or (or ?v_109 ?v_134) P20)) (or (or ?v_58 ?v_46) ?v_28)) (or (or P14 ?v_76) ?v_16)) (or (or ?v_20 P1) ?v_74)) (or (or ?v_29 ?v_73) ?v_64)) (or (or P24 ?v_38) ?v_92)) (or (or ?v_29 P18) P3)) (or (or ?v_99 ?v_81) ?v_8)) (or (or ?v_118 ?v_58) ?v_18)) (or (or ?v_135 P9) ?v_136)) (or (or ?v_107 ?v_77) ?v_82)) (or (or ?v_137 ?v_25) ?v_81)) (or (or P15 ?v_112) P18)) (or (or P19 ?v_64) ?v_138)) (or (or ?v_119 ?v_10) ?v_137)) (or (or ?v_56 ?v_139) ?v_50)) (or (or ?v_113 P2) ?v_73)) (or (or ?v_130 ?v_109) ?v_53)) (or (or ?v_105 ?v_85) P22)) (or (or ?v_100 ?v_8) ?v_25)) (or (or ?v_89 ?v_3) ?v_80)) (or (or ?v_19 ?v_52) P8)) (or (or ?v_84 ?v_63) P29)) (or (or ?v_66 ?v_15) ?v_34)) (or (or ?v_143 ?v_117) ?v_140)) (or (or ?v_141 P16) ?v_55)) (or (or ?v_15 ?v_105) ?v_48)) (or (or ?v_43 ?v_141) P13)) (or (or ?v_40 ?v_142) ?v_143)) (or (or ?v_20 P19) ?v_122)) (or (or ?v_80 ?v_80) ?v_75)) (or (or ?v_143 ?v_12) ?v_78)) (or (or P1 ?v_9) P12)) (or (or ?v_115 ?v_144) ?v_27)) (or (or ?v_92 P1) ?v_114)) (or (or ?v_137 ?v_139) ?v_110)) (or (or ?v_83 ?v_41) ?v_37)) (or (or ?v_45 ?v_17) ?v_48)) (or (or ?v_136 ?v_90) ?v_87)) (or (or ?v_59 P9) ?v_145)) (or (or ?v_7 ?v_66) ?v_78)) (or (or ?v_9 ?v_106) ?v_58)) (or (or P8 ?v_27) ?v_1)) (or (or ?v_25 P17) ?v_47)) (or (or ?v_43 ?v_129) ?v_146)) (or (or ?v_65 ?v_104) ?v_117)) (or (or ?v_73 ?v_60) ?v_143)) (or (or ?v_123 ?v_36) P10)) (or (or ?v_133 ?v_126) P21)) (or (or P9 ?v_146) ?v_99)) (or (or ?v_43 ?v_137) ?v_82)) (or (or ?v_79 ?v_68) ?v_125)) (or (or ?v_147 P19) P24)) (or (or P8 P25) ?v_143)) (or (or ?v_132 P6) ?v_74)) (or (or ?v_27 ?v_5) P16)) (or (or ?v_3 P12) ?v_36)) (or (or ?v_83 ?v_64) ?v_136)) (or (or ?v_72 P29) P22)) (or (or ?v_64 P12) ?v_57)) (or (or ?v_0 P8) ?v_84)) (or (or P10 ?v_43) ?v_132)) (or (or ?v_48 ?v_88) ?v_140)) (or (or ?v_32 ?v_78) ?v_85)) (or (or ?v_15 ?v_47) ?v_43)) (or (or P26 ?v_41) ?v_115)) (or (or ?v_34 ?v_21) ?v_98)) (or (or ?v_132 ?v_15) ?v_118)) (or (or ?v_65 P3) ?v_19)) (or (or ?v_22 ?v_3) ?v_102)) (or (or P17 P26) ?v_93)) (or (or ?v_148 ?v_118) ?v_67)) (or (or ?v_34 ?v_77) ?v_18)) (or (or P27 P12) ?v_82)) (or (or ?v_24 ?v_70) P11)) (or (or ?v_1 ?v_38) ?v_67)) (or (or ?v_140 P4) P14)) (or (or ?v_142 ?v_143) ?v_103)) (or (or ?v_78 ?v_44) ?v_148)) (or (or ?v_87 ?v_65) ?v_40)) (or (or P27 ?v_3) ?v_106)) (or (or ?v_134 ?v_83) ?v_127)) (or (or ?v_69 P26) ?v_93)) (or (or ?v_149 ?v_38) ?v_80)) (or (or ?v_148 ?v_75) ?v_53)) (or (or ?v_111 ?v_105) P17)) (or (or ?v_24 ?v_29) P15)) (or (or ?v_22 ?v_148) ?v_29)) (or (or ?v_65 P6) P27)) (or (or ?v_41 P27) ?v_39)) (or (or ?v_150 P23) P0)) (or (or ?v_32 ?v_129) ?v_117)) (or (or ?v_57 ?v_3) P20)) (or (or ?v_59 ?v_68) ?v_136)) (or (or ?v_36 ?v_146) P25)) (or (or ?v_31 ?v_34) ?v_153)) (or (or ?v_27 ?v_95) ?v_151)) (or (or ?v_65 ?v_139) P7)) (or (or P21 ?v_106) ?v_111)) (or (or ?v_69 ?v_132) ?v_43)) (or (or P0 ?v_60) ?v_115)) (or (or ?v_10 ?v_37) ?v_40)) (or (or ?v_39 P29) P4)) (or (or ?v_75 ?v_5) ?v_44)) (or (or ?v_20 ?v_150) P20)) (or (or P10 ?v_34) ?v_31)) (or (or ?v_133 P2) ?v_37)) (or (or ?v_127 ?v_152) ?v_66)) (or (or P19 ?v_70) ?v_68)) (or (or ?v_74 ?v_142) ?v_122)) (or (or P5 ?v_138) ?v_8)) (or (or ?v_68 ?v_134) ?v_82)) (or (or ?v_146 ?v_75) P21)) (or (or ?v_75 P27) ?v_114)) (or (or ?v_150 P28) P11)) (or (or ?v_95 P22) P28)) (or (or ?v_121 ?v_107) ?v_37)) (or (or ?v_64 ?v_45) ?v_77)) (or (or ?v_111 ?v_127) ?v_93)) (or (or ?v_17 P11) ?v_90)) (or (or ?v_11 ?v_34) ?v_26)) (or (or ?v_132 ?v_67) ?v_54)) (or (or ?v_118 P29) ?v_76)) (or (or P3 ?v_34) ?v_14)) (or (or ?v_78 ?v_123) ?v_130)) (or (or P17 ?v_132) ?v_119)) (or (or ?v_79 ?v_7) ?v_56)) (or (or ?v_70 ?v_30) P10)) (or (or ?v_5 ?v_72) ?v_104)) (or (or ?v_58 ?v_20) ?v_11)) (or (or ?v_87 ?v_36) ?v_58)) (or (or ?v_148 ?v_73) P10)) (or (or ?v_45 ?v_57) P14)) (or (or ?v_74 ?v_39) P21)) (or (or P19 ?v_75) ?v_45)) (or (or ?v_3 ?v_19) ?v_55)) (or (or P27 ?v_145) ?v_78)) (or (or ?v_5 ?v_149) P1)) (or (or P13 P29) ?v_53)) (or ?v_156 ?v_76)) (or (or ?v_5 P4) ?v_10)) (or (or ?v_132 ?v_132) ?v_103)) (or (or ?v_13 ?v_41) ?v_29)) (or (or ?v_54 ?v_102) ?v_0)) (or (or ?v_67 ?v_23) ?v_25)) (or (or ?v_73 ?v_32) P8)) (or (or ?v_54 ?v_8) ?v_52)) (or (or ?v_50 ?v_82) ?v_80)) (or (or ?v_20 ?v_91) ?v_46)) (or (or ?v_100 P9) P28)) (or (or P25 ?v_40) P17)) (or (or ?v_103 ?v_29) P28)) (or (or ?v_101 ?v_59) ?v_109)) (or (or ?v_113 ?v_129) ?v_96)) (or (or ?v_36 ?v_127) ?v_134)) (or (or ?v_22 ?v_17) ?v_129)) (or (or P11 ?v_48) ?v_66)) (or (or ?v_29 P13) ?v_45)) (or (or ?v_25 ?v_82) ?v_147)) (or (or ?v_75 ?v_110) ?v_7)) (or (or ?v_70 ?v_128) ?v_3)) (or (or ?v_46 ?v_103) ?v_58)) (or (or P29 ?v_58) ?v_75)) (or (or ?v_75 ?v_71) ?v_26)) (or (or P12 ?v_135) P16)) (or (or ?v_151 ?v_79) ?v_26)) (or (or ?v_41 ?v_121) ?v_138)) (or (or ?v_33 ?v_146) P10)) (or (or ?v_47 ?v_125) P17)) (or (or ?v_121 ?v_140) P29)) (or (or ?v_151 ?v_39) ?v_69)) (or (or P23 ?v_114) ?v_46)) (or (or ?v_35 ?v_68) ?v_152)) (or (or ?v_149 ?v_123) P22)) (or (or ?v_4 ?v_45) ?v_94)) (or (or ?v_100 ?v_76) ?v_89)) (or (or ?v_29 P2) ?v_79)) (or (or ?v_54 P5) ?v_95)) (or (or ?v_108 ?v_0) ?v_100)) (or (or ?v_40 ?v_140) ?v_152)) (or (or ?v_142 ?v_127) ?v_48)) (or (or P2 ?v_61) ?v_18)) (or (or ?v_105 ?v_140) ?v_127)) (or (or ?v_53 P28) ?v_69)) (or (or ?v_143 P1) ?v_11)) (or (or ?v_125 ?v_13) ?v_25)) (or (or P15 P6) ?v_114)) (or (or ?v_153 P16) ?v_112)) (or (or ?v_81 ?v_140) P0)) (or (or ?v_143 ?v_36) ?v_73)) (or (or ?v_66 ?v_81) P12)) (or (or ?v_64 ?v_37) ?v_99)) (or (or ?v_120 ?v_103) ?v_125)) (or (or P26 ?v_64) ?v_48)) (or (or P26 ?v_128) ?v_75)) (or (or ?v_148 ?v_77) ?v_104)) (or (or ?v_62 ?v_138) ?v_135)) (or (or ?v_29 P12) ?v_22)) (or (or ?v_101 ?v_104) ?v_33)) (or (or ?v_116 ?v_27) ?v_57)) (or (or P13 ?v_111) P1)) (or (or ?v_96 ?v_147) P10)) (or (or ?v_107 ?v_100) P22)) (or (or ?v_111 ?v_139) ?v_113)) (or (or ?v_10 P27) ?v_122)) (or (or ?v_11 P22) ?v_116)) (or (or ?v_81 ?v_83) ?v_105)) (or (or ?v_36 P9) ?v_89)) (or (or ?v_136 ?v_1) ?v_122)) (or (or ?v_32 ?v_138) ?v_134)) (or (or ?v_90 ?v_38) ?v_73)) (or (or ?v_37 ?v_13) ?v_50)) (or (or ?v_23 ?v_114) ?v_37)) (or (or ?v_80 ?v_71) ?v_63)) (or (or ?v_41 ?v_22) ?v_34)) (or (or ?v_133 ?v_81) ?v_103)) (or (or ?v_69 ?v_82) ?v_139)) (or (or ?v_6 ?v_97) ?v_39)) (or (or ?v_29 ?v_26) P14)) (or (or P1 ?v_126) P0)) (or (or ?v_97 ?v_154) ?v_60)) (or (or ?v_33 ?v_127) ?v_53)) (or (or ?v_105 ?v_150) ?v_15)) (or (or ?v_113 ?v_153) ?v_59)) (or (or ?v_5 ?v_101) ?v_107)) (or (or ?v_149 ?v_43) ?v_14)) (or (or P15 ?v_125) ?v_47)) (or (or ?v_150 ?v_26) ?v_129)) (or (or ?v_20 ?v_36) ?v_93)) (or (or ?v_7 ?v_76) ?v_148)) (or (or P27 P15) ?v_66)) (or (or ?v_133 ?v_55) ?v_33)) (or (or ?v_5 ?v_89) ?v_6)) (or (or ?v_38 ?v_134) ?v_50)) (or (or ?v_137 ?v_81) ?v_31)) (or (or ?v_148 ?v_149) ?v_136)) (or (or ?v_10 ?v_102) P16)) (or (or ?v_9 ?v_143) ?v_73)) (or (or ?v_118 ?v_48) ?v_122)) (or (or ?v_4 ?v_76) P10)) (or (or ?v_12 ?v_66) ?v_1)) (or (or P0 ?v_77) ?v_94)) (or (or ?v_100 ?v_100) ?v_34)) (or (or P21 ?v_67) ?v_11)) (or (or P1 ?v_110) ?v_97)) (or (or ?v_102 P17) ?v_13)) (or (or ?v_12 ?v_114) ?v_144)) (or (or ?v_99 ?v_78) ?v_70)) (or (or P20 ?v_66) ?v_129)) (or (or ?v_5 ?v_70) ?v_24)) (or (or P27 ?v_112) ?v_93)) (or ?v_155 ?v_100)) (or (or ?v_18 P27) ?v_5)) (or (or ?v_28 ?v_7) ?v_74)) (or (or ?v_8 ?v_64) ?v_19)) (or (or P13 ?v_100) ?v_39)) (or (or ?v_111 ?v_138) ?v_80)) (or (or ?v_72 ?v_137) ?v_61)) (or (or ?v_21 ?v_151) P1)) (or (or ?v_29 ?v_74) ?v_127)) (or (or P3 ?v_47) P16)) (or ?v_156 ?v_71)) (or (or ?v_73 P29) ?v_81)) (or (or ?v_112 ?v_30) ?v_94)) (or (or ?v_48 ?v_61) P23)) (or (or ?v_115 ?v_151) ?v_154)) (or (or P3 ?v_126) ?v_136)) (or (or ?v_150 P12) ?v_103)) (or (or ?v_93 ?v_28) P12)) (or (or ?v_66 ?v_61) ?v_62)) (or (or P3 ?v_136) P19)) (or (or ?v_105 ?v_109) ?v_130))))))))))))))))))))))
(check-sat)
(exit)
